34
0	0
1	283
2	2129
3	0
4	720
5	512
6	2135
7	502
8	688
9	840
10	723
11	382
12	861
13	508
14	1323
15	1791
16	287
17	0
18	2141
19	1578
20	1062
21	1957
22	156
23	2072
24	506
25	2148
26	865
27	508
28	156
29	2145
30	867
31	2072
32	2150
33	2151
